c User generated cnf file
p cnf 10 18
4 -3 1 0 
9 -6 1 0 
5 -10 7 0 
8 -3 9 0 
1 -9 5 0 
5 -2 3 0 
3 10 -8 0 
10 -8 9 0 
9 5 -6 0 
2 3 -4 0 
2 -10 8 0 
6 7 -7 0 
7 -4 8 0 
7 5 -8 0 
2 -10 7 0 
3 -10 8 0 
7 -8 10 0 
7 -10 2 0 
